0 130 
1 129 
2 128 
3 128 
4 126 
5 127 
6 125 
7 123 
8 125 
9 119 
10 125 
11 121 
12 118 
13 116 
14 117 
15 115 
16 117 
17 114 
18 113 
19 109 
20 110 
21 109 
22 107 
23 106 
24 101 
25 103 
26 99 
27 98 
28 99 
29 101 
30 97 
31 96 
32 94 
33 96 
34 91 
35 88 
36 87 
37 85 
38 84 
39 81 
40 79 
41 73 
42 75 
43 74 
44 71 
45 70 
46 69 
47 65 
48 67 
49 65 
50 70 
51 66 
52 66 
53 61 
54 60 
55 58 
56 54 
57 54 
58 49 
59 48 
60 46 
61 44 
62 43 
63 43 
64 42 
65 41 
66 39 
67 41 
68 41 
69 40 
70 37 
71 36 
72 38 
73 39 
74 34 
75 33 
76 32 
77 29 
78 30 
79 28 
80 28 
81 30 
82 30 
83 29 
84 27 
85 27 
86 26 
87 22 
88 24 
89 23 
90 21 
91 21 
92 21 
93 23 
94 24 
95 24 
96 24 
97 23 
98 21 
99 20 
100 17 
101 17 
102 15 
103 14 
104 13 
105 12 
106 14 
107 12 
108 10 
109 10 
110 8 
111 7 
112 10 
113 5 
114 3 
115 2 
116 1 
117 0 
118 0 

